93617.0
1602
0 2 4 5 6 8 10 12 13 14 16 19 20 22 25 27 28 29 30 33 35 36 37 38 39 41 42 46 47 48 49 50 51 53 54 55 56 57 58 59 61 62 63 67 70 71 72 73 75 76 80 81 83 84 85 86 88 89 90 92 93 94 95 96 97 98 